c PEQNP - www.peqnp.com
c contact@peqnp.science
c pip install PEQNP
p cnf 73 229
-1 -2 -3 -4 0
-5 -6 -7 -8 0
1 5 -9 0
1 -5 9 0
-1 5 9 0
-1 -5 -9 0
1 -5 -10 0
1 5 10 0
-1 5 10 0
-1 10 0
2 -6 -11 10 0
2 6 -11 -10 0
2 6 11 10 0
2 -6 11 -10 0
-2 -6 11 10 0
-2 6 11 -10 0
-2 6 -11 10 0
-2 -6 -11 -10 0
2 -6 -12 0
2 10 -12 0
2 6 -10 12 0
-2 -6 10 -12 0
-2 6 12 0
-2 -10 12 0
3 -7 -13 12 0
3 7 -13 -12 0
3 7 13 12 0
3 -7 13 -12 0
-3 -7 13 12 0
-3 7 13 -12 0
-3 7 -13 12 0
-3 -7 -13 -12 0
3 -7 -14 0
3 12 -14 0
3 7 -12 14 0
-3 -7 12 -14 0
-3 7 14 0
-3 -12 14 0
4 -8 -15 14 0
4 8 -15 -14 0
4 8 15 14 0
4 -8 15 -14 0
-4 -8 15 14 0
-4 8 15 -14 0
-4 8 -15 14 0
-4 -8 -15 -14 0
9 -16 0
-9 16 0
-9 -17 0
9 17 0
-11 -18 17 0
11 -18 -17 0
11 18 17 0
-11 18 -17 0
-11 -19 0
17 -19 0
11 -17 19 0
-13 -20 19 0
13 -20 -19 0
13 20 19 0
-13 20 -19 0
-13 -21 0
19 -21 0
13 -19 21 0
-15 -22 21 0
15 -22 -21 0
15 22 21 0
-15 22 -21 0
-23 -24 0
23 25 0
-23 -25 0
25 -26 0
-25 26 0
26 -27 0
-26 27 0
26 -28 0
26 -28 0
-26 -28 0
-29 28 0
29 -28 0
24 30 0
-24 -30 0
30 -31 0
-30 31 0
27 31 -32 0
27 -31 32 0
-27 31 32 0
-27 -31 -32 0
27 31 -33 0
27 -33 0
-27 31 -33 0
-27 -31 33 0
29 -34 33 0
29 34 -33 0
-29 34 33 0
-29 -34 -33 0
29 -35 0
29 33 -35 0
-29 33 -35 0
-29 -33 35 0
-36 35 0
36 -35 0
-32 -37 0
32 0
34 -38 0
-34 0
36 -39 0
-36 0
-9 23 40 0
9 -40 0
-23 -40 0
-11 23 41 0
11 -41 0
-23 -41 0
-13 23 42 0
13 -42 0
-23 -42 0
-15 23 43 0
15 -43 0
-23 -43 0
40 -44 0
-40 44 0
41 -45 0
-41 45 0
42 -46 0
-42 46 0
43 -47 0
-43 47 0
44 -48 0
-44 48 0
44 -49 0
44 -49 0
-44 -49 0
45 -50 49 0
45 50 -49 0
-45 50 49 0
-45 -50 -49 0
45 -51 0
45 49 -51 0
-45 49 -51 0
-45 -49 51 0
46 -52 51 0
46 52 -51 0
-46 52 51 0
-46 -52 -51 0
46 -53 0
46 51 -53 0
-46 51 -53 0
-46 -51 53 0
47 -54 53 0
47 54 -53 0
-47 54 53 0
-47 -54 -53 0
-47 -53 0
-16 24 55 0
16 -55 0
-24 -55 0
-18 24 56 0
18 -56 0
-24 -56 0
-20 24 57 0
20 -57 0
-24 -57 0
-22 24 58 0
22 -58 0
-24 -58 0
55 -59 0
-55 59 0
56 -60 0
-56 60 0
57 -61 0
-57 61 0
58 -62 0
-58 62 0
48 59 -63 0
48 -59 63 0
-48 59 63 0
-48 -59 -63 0
48 59 -64 0
48 -64 0
-48 59 -64 0
-48 -59 64 0
50 60 -65 64 0
50 -60 -65 -64 0
50 -60 65 64 0
50 60 65 -64 0
-50 60 65 64 0
-50 -60 65 -64 0
-50 -60 -65 64 0
-50 60 -65 -64 0
50 60 -66 0
50 64 -66 0
50 -60 -64 66 0
-50 60 64 -66 0
-50 -60 66 0
-50 -64 66 0
52 61 -67 66 0
52 -61 -67 -66 0
52 -61 67 66 0
52 61 67 -66 0
-52 61 67 66 0
-52 -61 67 -66 0
-52 -61 -67 66 0
-52 61 -67 -66 0
52 61 -68 0
52 66 -68 0
52 -61 -66 68 0
-52 61 66 -68 0
-52 -61 68 0
-52 -66 68 0
54 62 -69 68 0
54 -62 -69 -68 0
54 -62 69 68 0
54 62 69 -68 0
-54 62 69 68 0
-54 -62 69 -68 0
-54 -62 -69 68 0
-54 62 -69 -68 0
54 -62 -68 0
-54 -62 0
-54 -68 0
-63 -70 0
63 0
65 -71 0
-65 0
67 -72 0
-67 0
69 -73 0
-69 0
c {'x': [1, 2, 3, 4], 'y': [5, 6, 7, 8]}
-1 2 3 4 5 6 7 8 -9 -10 11 -12 13 -14 15 -16 17 -18 19 -20 21 -22 23 -24 -25 -26 -27 28 29 30 31 -32 33 34 35 36 37 38 39 -40 41 42 43 -44 45 46 47 -48 49 50 51 52 53 54 55 56 57 58 59 60 61 62 -63 64 65 66 67 68 69 70 71 72 73 0
1 2 3 4 -5 6 7 8 -9 10 -11 12 -13 14 -15 -16 17 18 19 20 21 22 -23 24 25 26 27 28 29 -30 -31 -32 33 34 35 36 37 38 39 40 41 42 43 44 45 46 47 48 49 50 51 52 53 54 -55 56 57 58 -59 60 61 62 -63 64 65 66 67 68 69 70 71 72 73 0
1 -2 3 4 -5 -6 7 8 -9 10 -11 12 -13 14 -15 -16 17 18 19 20 21 22 -23 24 25 26 27 28 29 -30 -31 -32 33 34 35 36 37 38 39 40 41 42 43 44 45 46 47 48 49 50 51 52 53 54 -55 56 57 58 -59 60 61 62 -63 64 65 66 67 68 69 70 71 72 73 0
1 2 -3 4 -5 -6 7 8 -9 10 11 12 13 -14 15 -16 17 -18 19 -20 21 -22 23 -24 -25 -26 -27 28 29 30 31 -32 33 34 35 36 37 38 39 -40 41 42 43 -44 45 46 47 -48 49 50 51 52 53 54 55 56 57 58 59 60 61 62 -63 64 65 66 67 68 69 70 71 72 73 0
1 2 -3 4 -5 6 -7 8 -9 10 -11 12 -13 14 -15 -16 17 18 19 20 21 22 -23 24 25 26 27 28 29 -30 -31 -32 33 34 35 36 37 38 39 40 41 42 43 44 45 46 47 48 49 50 51 52 53 54 -55 56 57 58 -59 60 61 62 -63 64 65 66 67 68 69 70 71 72 73 0
1 2 -3 -4 -5 -6 7 -8 -9 10 11 12 13 -14 15 -16 17 -18 19 -20 21 -22 23 -24 -25 -26 -27 28 29 30 31 -32 33 34 35 36 37 38 39 -40 41 42 43 -44 45 46 47 -48 49 50 51 52 53 54 55 56 57 58 59 60 61 62 -63 64 65 66 67 68 69 70 71 72 73 0
1 -2 -3 4 -5 -6 -7 8 -9 10 -11 12 -13 14 -15 -16 17 18 19 20 21 22 -23 24 25 26 27 28 29 -30 -31 -32 33 34 35 36 37 38 39 40 41 42 43 44 45 46 47 48 49 50 51 52 53 54 -55 56 57 58 -59 60 61 62 -63 64 65 66 67 68 69 70 71 72 73 0
1 -2 3 4 -5 6 7 8 -9 10 11 -12 13 -14 15 -16 17 -18 19 -20 21 -22 23 -24 -25 -26 -27 28 29 30 31 -32 33 34 35 36 37 38 39 -40 41 42 43 -44 45 46 47 -48 49 50 51 52 53 54 55 56 57 58 59 60 61 62 -63 64 65 66 67 68 69 70 71 72 73 0
1 2 3 -4 -5 -6 -7 8 -9 10 11 12 13 14 15 -16 17 -18 19 -20 21 -22 23 -24 -25 -26 -27 28 29 30 31 -32 33 34 35 36 37 38 39 -40 41 42 43 -44 45 46 47 -48 49 50 51 52 53 54 55 56 57 58 59 60 61 62 -63 64 65 66 67 68 69 70 71 72 73 0
-1 2 -3 4 5 -6 -7 8 -9 -10 -11 12 -13 14 -15 -16 17 18 19 20 21 22 -23 24 25 26 27 28 29 -30 -31 -32 33 34 35 36 37 38 39 40 41 42 43 44 45 46 47 48 49 50 51 52 53 54 -55 56 57 58 -59 60 61 62 -63 64 65 66 67 68 69 70 71 72 73 0
-1 -2 3 4 5 6 -7 8 -9 -10 -11 -12 -13 14 -15 -16 17 18 19 20 21 22 -23 24 25 26 27 28 29 -30 -31 -32 33 34 35 36 37 38 39 40 41 42 43 44 45 46 47 48 49 50 51 52 53 54 -55 56 57 58 -59 60 61 62 -63 64 65 66 67 68 69 70 71 72 73 0
1 2 3 -4 -5 6 7 -8 -9 10 -11 12 -13 14 -15 -16 17 18 19 20 21 22 -23 24 25 26 27 28 29 -30 -31 -32 33 34 35 36 37 38 39 40 41 42 43 44 45 46 47 48 49 50 51 52 53 54 -55 56 57 58 -59 60 61 62 -63 64 65 66 67 68 69 70 71 72 73 0
-1 2 3 4 5 -6 7 8 -9 -10 -11 12 -13 14 -15 -16 17 18 19 20 21 22 -23 24 25 26 27 28 29 -30 -31 -32 33 34 35 36 37 38 39 40 41 42 43 44 45 46 47 48 49 50 51 52 53 54 -55 56 57 58 -59 60 61 62 -63 64 65 66 67 68 69 70 71 72 73 0
1 2 -3 -4 -5 6 -7 -8 -9 10 -11 12 -13 14 -15 -16 17 18 19 20 21 22 -23 24 25 26 27 28 29 -30 -31 -32 33 34 35 36 37 38 39 40 41 42 43 44 45 46 47 48 49 50 51 52 53 54 -55 56 57 58 -59 60 61 62 -63 64 65 66 67 68 69 70 71 72 73 0
1 -2 3 -4 -5 -6 7 -8 -9 10 -11 12 -13 14 -15 -16 17 18 19 20 21 22 -23 24 25 26 27 28 29 -30 -31 -32 33 34 35 36 37 38 39 40 41 42 43 44 45 46 47 48 49 50 51 52 53 54 -55 56 57 58 -59 60 61 62 -63 64 65 66 67 68 69 70 71 72 73 0
-1 2 3 -4 5 6 7 -8 -9 -10 11 -12 13 -14 15 -16 17 -18 19 -20 21 -22 23 -24 -25 -26 -27 28 29 30 31 -32 33 34 35 36 37 38 39 -40 41 42 43 -44 45 46 47 -48 49 50 51 52 53 54 55 56 57 58 59 60 61 62 -63 64 65 66 67 68 69 70 71 72 73 0
1 -2 -3 4 -5 6 -7 8 -9 10 11 -12 13 -14 15 -16 17 -18 19 -20 21 -22 23 -24 -25 -26 -27 28 29 30 31 -32 33 34 35 36 37 38 39 -40 41 42 43 -44 45 46 47 -48 49 50 51 52 53 54 55 56 57 58 59 60 61 62 -63 64 65 66 67 68 69 70 71 72 73 0
-1 -2 3 -4 5 -6 7 -8 -9 -10 11 -12 13 -14 15 -16 17 -18 19 -20 21 -22 23 -24 -25 -26 -27 28 29 30 31 -32 33 34 35 36 37 38 39 -40 41 42 43 -44 45 46 47 -48 49 50 51 52 53 54 55 56 57 58 59 60 61 62 -63 64 65 66 67 68 69 70 71 72 73 0
-1 -2 3 -4 5 6 -7 -8 -9 -10 -11 -12 -13 14 -15 -16 17 18 19 20 21 22 -23 24 25 26 27 28 29 -30 -31 -32 33 34 35 36 37 38 39 40 41 42 43 44 45 46 47 48 49 50 51 52 53 54 -55 56 57 58 -59 60 61 62 -63 64 65 66 67 68 69 70 71 72 73 0
1 -2 3 -4 -5 6 7 -8 -9 10 11 -12 13 -14 15 -16 17 -18 19 -20 21 -22 23 -24 -25 -26 -27 28 29 30 31 -32 33 34 35 36 37 38 39 -40 41 42 43 -44 45 46 47 -48 49 50 51 52 53 54 55 56 57 58 59 60 61 62 -63 64 65 66 67 68 69 70 71 72 73 0
-1 2 3 -4 5 -6 7 -8 -9 -10 -11 12 -13 14 -15 -16 17 18 19 20 21 22 -23 24 25 26 27 28 29 -30 -31 -32 33 34 35 36 37 38 39 40 41 42 43 44 45 46 47 48 49 50 51 52 53 54 -55 56 57 58 -59 60 61 62 -63 64 65 66 67 68 69 70 71 72 73 0
-1 -2 -3 4 5 6 7 -8 -9 -10 -11 -12 -13 -14 -15 -16 17 18 19 20 21 22 -23 24 25 26 27 28 29 -30 -31 -32 33 34 35 36 37 38 39 40 41 42 43 44 45 46 47 48 49 50 51 52 53 54 -55 56 57 58 -59 60 61 62 -63 64 65 66 67 68 69 70 71 72 73 0
-1 2 -3 -4 5 -6 -7 -8 -9 -10 -11 12 -13 14 -15 -16 17 18 19 20 21 22 -23 24 25 26 27 28 29 -30 -31 -32 33 34 35 36 37 38 39 40 41 42 43 44 45 46 47 48 49 50 51 52 53 54 -55 56 57 58 -59 60 61 62 -63 64 65 66 67 68 69 70 71 72 73 0
-1 2 -3 -4 5 6 -7 -8 -9 -10 11 -12 13 -14 15 -16 17 -18 19 -20 21 -22 23 -24 -25 -26 -27 28 29 30 31 -32 33 34 35 36 37 38 39 -40 41 42 43 -44 45 46 47 -48 49 50 51 52 53 54 55 56 57 58 59 60 61 62 -63 64 65 66 67 68 69 70 71 72 73 0
-1 -2 3 4 5 -6 7 8 -9 -10 11 -12 13 -14 15 -16 17 -18 19 -20 21 -22 23 -24 -25 -26 -27 28 29 30 31 -32 33 34 35 36 37 38 39 -40 41 42 43 -44 45 46 47 -48 49 50 51 52 53 54 55 56 57 58 59 60 61 62 -63 64 65 66 67 68 69 70 71 72 73 0
-1 2 -3 4 5 6 -7 8 -9 -10 11 -12 13 -14 15 -16 17 -18 19 -20 21 -22 23 -24 -25 -26 -27 28 29 30 31 -32 33 34 35 36 37 38 39 -40 41 42 43 -44 45 46 47 -48 49 50 51 52 53 54 55 56 57 58 59 60 61 62 -63 64 65 66 67 68 69 70 71 72 73 0
-1 -2 -3 4 5 -6 -7 8 -9 -10 11 -12 13 -14 15 -16 17 -18 19 -20 21 -22 23 -24 -25 -26 -27 28 29 30 31 -32 33 34 35 36 37 38 39 -40 41 42 43 -44 45 46 47 -48 49 50 51 52 53 54 55 56 57 58 59 60 61 62 -63 64 65 66 67 68 69 70 71 72 73 0
1 -2 -3 -4 -5 6 -7 -8 -9 10 11 -12 13 -14 15 -16 17 -18 19 -20 21 -22 23 -24 -25 -26 -27 28 29 30 31 -32 33 34 35 36 37 38 39 -40 41 42 43 -44 45 46 47 -48 49 50 51 52 53 54 55 56 57 58 59 60 61 62 -63 64 65 66 67 68 69 70 71 72 73 0
